# Solution for model micodag
# Objective value = 1.9373466949357912e+01
s_0_1 0
s_1_0 0
s_0_2 0
s_2_0 3.0197116816399827e-01
s_1_2 0
s_2_1 2.4277513545642915e-01
s_1_3 0
s_3_1 2.3570477733087358e-01
s_1_9 0
s_9_1 0
s_1_12 0
s_12_1 7.4424370060821765e-01
s_1_13 0
s_13_1 2.2086153231143868e-01
s_2_3 0
s_3_2 3.0260342691873188e-01
s_2_4 0
s_4_2 3.4693242082347364e-01
s_2_6 0
s_6_2 0
s_2_8 0
s_8_2 2.4395520720260677e-01
s_3_4 0
s_4_3 4.9558927922704266e+00
s_3_6 0
s_6_3 0
s_3_7 0
s_7_3 0
s_3_8 0
s_8_3 4.9558927922704266e+00
s_3_9 0
s_9_3 4.9558927922704266e+00
s_3_12 0
s_12_3 0
s_3_13 0
s_13_3 4.9558927922704266e+00
s_4_5 0
s_5_4 0
s_4_6 0
s_6_4 3.6719756250835722e-01
s_4_7 0
s_7_4 0
s_4_8 0
s_8_4 0
s_4_11 0
s_11_4 4.8489767145332063e-01
s_5_6 0
s_6_5 0.700000498651641
s_5_7 0
s_7_5 5.9299955612504185e-01
s_5_14 0
s_14_5 2.8439339563167021e-01
s_6_8 0
s_8_6 3.6789040986675836e-01
s_7_8 0
s_8_7 0
s_7_9 0
s_9_7 3.6712902716913476e-01
s_7_10 0
s_10_7 2.2378149663991387e-01
s_7_11 0
s_11_7 4.3540527087745495e-01
s_8_11 0
s_11_8 2.0298087328863001e-01
s_9_12 0
s_12_9 0.381311735132253
s_12_13 0
s_13_12 2.2797357083859815e-01
s_0_0 1.1137375412105119e+00
s_1_1 7.7652297384670366e-01
s_2_2 6.4566084955100589e-01
s_3_3 4.9558927922704266e+00
s_4_4 1.0497239683175206e+00
s_5_5 0.699169375287596
s_6_6 1.0758676674284988e+00
s_7_7 9.4063506387544216e-01
s_8_8 6.4521362094145474e-01
s_9_9 9.9689217094075033e-01
s_10_10 6.4533648515242792e-01
s_11_11 6.4627332856656761e-01
s_12_12 1.0416959668929113e+00
s_13_13 6.7887699056585582e-01
s_14_14 1.0997357045960054e+00
Gamma_0_0 1.0553376432263335e+00
Gamma_0_1 0
Gamma_0_2 0
Gamma_0_3 0
Gamma_0_4 0
Gamma_0_5 0
Gamma_0_6 0
Gamma_0_7 0
Gamma_0_8 0
Gamma_0_9 0
Gamma_0_10 0
Gamma_0_11 0
Gamma_0_12 0
Gamma_0_13 0
Gamma_0_14 0
Gamma_1_0 0
Gamma_1_1 8.8120540956504845e-01
Gamma_1_2 0
Gamma_1_3 0
Gamma_1_4 0
Gamma_1_5 0
Gamma_1_6 0
Gamma_1_7 0
Gamma_1_8 0
Gamma_1_9 0
Gamma_1_10 0
Gamma_1_11 0
Gamma_1_12 0
Gamma_1_13 0
Gamma_1_14 0
Gamma_2_0 -5.4951903348655629e-01
Gamma_2_1 -4.9272216862693508e-01
Gamma_2_2 8.0353024183972510e-01
Gamma_2_3 0
Gamma_2_4 0
Gamma_2_5 0
Gamma_2_6 0
Gamma_2_7 0
Gamma_2_8 0
Gamma_2_9 0
Gamma_2_10 0
Gamma_2_11 0
Gamma_2_12 0
Gamma_2_13 0
Gamma_2_14 0
Gamma_3_0 0
Gamma_3_1 4.8549436385078126e-01
Gamma_3_2 5.5009401643603872e-01
Gamma_3_3 8.3257184861316968e-01
Gamma_3_4 0
Gamma_3_5 0
Gamma_3_6 0
Gamma_3_7 0
Gamma_3_8 0
Gamma_3_9 0
Gamma_3_10 0
Gamma_3_11 0
Gamma_3_12 0
Gamma_3_13 0
Gamma_3_14 0
Gamma_4_0 0
Gamma_4_1 0
Gamma_4_2 5.8900969501653744e-01
Gamma_4_3 7.9166764565654379e-01
Gamma_4_4 1.0245603780732113e+00
Gamma_4_5 0
Gamma_4_6 0
Gamma_4_7 0
Gamma_4_8 0
Gamma_4_9 0
Gamma_4_10 0
Gamma_4_11 0
Gamma_4_12 0
Gamma_4_13 0
Gamma_4_14 0
Gamma_5_0 0
Gamma_5_1 0
Gamma_5_2 0
Gamma_5_3 0
Gamma_5_4 0
Gamma_5_5 8.3616348598081969e-01
Gamma_5_6 0
Gamma_5_7 0
Gamma_5_8 0
Gamma_5_9 0
Gamma_5_10 0
Gamma_5_11 0
Gamma_5_12 0
Gamma_5_13 0
Gamma_5_14 0
Gamma_6_0 0
Gamma_6_1 0
Gamma_6_2 0
Gamma_6_3 0
Gamma_6_4 -6.0596828506808675e-01
Gamma_6_5 8.3666032453537686e-01
Gamma_6_6 1.0372404096584835e+00
Gamma_6_7 0
Gamma_6_8 0
Gamma_6_9 0
Gamma_6_10 0
Gamma_6_11 0
Gamma_6_12 0
Gamma_6_13 0
Gamma_6_14 0
Gamma_7_0 0
Gamma_7_1 0
Gamma_7_2 0
Gamma_7_3 0
Gamma_7_4 0
Gamma_7_5 -7.7006464412089626e-01
Gamma_7_6 0
Gamma_7_7 9.6986342537258452e-01
Gamma_7_8 0
Gamma_7_9 0
Gamma_7_10 0
Gamma_7_11 0
Gamma_7_12 0
Gamma_7_13 0
Gamma_7_14 0
Gamma_8_0 0
Gamma_8_1 0
Gamma_8_2 4.9391821914423040e-01
Gamma_8_3 6.3918772779450816e-01
Gamma_8_4 0
Gamma_8_5 0
Gamma_8_6 -6.0653970180587446e-01
Gamma_8_7 0
Gamma_8_8 8.0325190378949951e-01
Gamma_8_9 0
Gamma_8_10 0
Gamma_8_11 0
Gamma_8_12 0
Gamma_8_13 0
Gamma_8_14 0
Gamma_9_0 0
Gamma_9_1 0
Gamma_9_2 0
Gamma_9_3 6.1550567714259485e-01
Gamma_9_4 0
Gamma_9_5 0
Gamma_9_6 0
Gamma_9_7 -6.0591173216000349e-01
Gamma_9_8 0
Gamma_9_9 9.9844487626546030e-01
Gamma_9_10 0
Gamma_9_11 0
Gamma_9_12 0
Gamma_9_13 0
Gamma_9_14 0
Gamma_10_0 0
Gamma_10_1 0
Gamma_10_2 0
Gamma_10_3 0
Gamma_10_4 0
Gamma_10_5 0
Gamma_10_6 0
Gamma_10_7 4.7305549002195768e-01
Gamma_10_8 0
Gamma_10_9 0
Gamma_10_10 8.0332837940186641e-01
Gamma_10_11 0
Gamma_10_12 0
Gamma_10_13 0
Gamma_10_14 0
Gamma_11_0 0
Gamma_11_1 0
Gamma_11_2 0
Gamma_11_3 0
Gamma_11_4 -6.9634594236867686e-01
Gamma_11_5 0
Gamma_11_6 0
Gamma_11_7 6.5985246144684173e-01
Gamma_11_8 4.5053398682966278e-01
Gamma_11_9 0
Gamma_11_10 0
Gamma_11_11 8.0391126908793131e-01
Gamma_11_12 0
Gamma_11_13 0
Gamma_11_14 0
Gamma_12_0 0
Gamma_12_1 -8.6269560136134849e-01
Gamma_12_2 0
Gamma_12_3 0
Gamma_12_4 0
Gamma_12_5 0
Gamma_12_6 0
Gamma_12_7 0
Gamma_12_8 0
Gamma_12_9 -6.1750444138666227e-01
Gamma_12_10 0
Gamma_12_11 0
Gamma_12_12 1.0206350801794495e+00
Gamma_12_13 0
Gamma_12_14 0
Gamma_13_0 0
Gamma_13_1 4.6995907514531443e-01
Gamma_13_2 0
Gamma_13_3 6.1479292956105869e-01
Gamma_13_4 0
Gamma_13_5 0
Gamma_13_6 0
Gamma_13_7 0
Gamma_13_8 0
Gamma_13_9 0
Gamma_13_10 0
Gamma_13_11 0
Gamma_13_12 4.7746577975662158e-01
Gamma_13_13 8.2393991926951615e-01
Gamma_13_14 0
Gamma_14_0 0
Gamma_14_1 0
Gamma_14_2 0
Gamma_14_3 0
Gamma_14_4 0
Gamma_14_5 5.3328547292390349e-01
Gamma_14_6 0
Gamma_14_7 0
Gamma_14_8 0
Gamma_14_9 0
Gamma_14_10 0
Gamma_14_11 0
Gamma_14_12 0
Gamma_14_13 0
Gamma_14_14 1.0486828427108008e+00
psi_0 6
psi_1 6
psi_2 5
psi_3 4
psi_4 3
psi_5 4
psi_6 2
psi_7 3
psi_8 1
psi_9 2
psi_10 0
psi_11 0
psi_12 1
psi_13 0
psi_14 0
g_0_0 0
g_0_1 0
g_0_2 0
g_0_3 0
g_0_4 0
g_0_5 0
g_0_6 0
g_0_7 0
g_0_8 0
g_0_9 0
g_0_10 0
g_0_11 0
g_0_12 0
g_0_13 0
g_0_14 0
g_1_0 0
g_1_1 0
g_1_2 0
g_1_3 0
g_1_4 0
g_1_5 0
g_1_6 0
g_1_7 0
g_1_8 0
g_1_9 0
g_1_10 0
g_1_11 0
g_1_12 0
g_1_13 0
g_1_14 0
g_2_0 1
g_2_1 1
g_2_2 0
g_2_3 0
g_2_4 0
g_2_5 0
g_2_6 0
g_2_7 0
g_2_8 0
g_2_9 0
g_2_10 0
g_2_11 0
g_2_12 0
g_2_13 0
g_2_14 0
g_3_0 0
g_3_1 1
g_3_2 1
g_3_3 0
g_3_4 0
g_3_5 0
g_3_6 0
g_3_7 0
g_3_8 0
g_3_9 0
g_3_10 0
g_3_11 0
g_3_12 0
g_3_13 0
g_3_14 0
g_4_0 0
g_4_1 0
g_4_2 1
g_4_3 1
g_4_4 0
g_4_5 0
g_4_6 0
g_4_7 0
g_4_8 0
g_4_9 0
g_4_10 0
g_4_11 0
g_4_12 0
g_4_13 0
g_4_14 0
g_5_0 0
g_5_1 0
g_5_2 0
g_5_3 0
g_5_4 0
g_5_5 0
g_5_6 0
g_5_7 0
g_5_8 0
g_5_9 0
g_5_10 0
g_5_11 0
g_5_12 0
g_5_13 0
g_5_14 0
g_6_0 0
g_6_1 0
g_6_2 0
g_6_3 0
g_6_4 1
g_6_5 1
g_6_6 0
g_6_7 0
g_6_8 0
g_6_9 0
g_6_10 0
g_6_11 0
g_6_12 0
g_6_13 0
g_6_14 0
g_7_0 0
g_7_1 0
g_7_2 0
g_7_3 0
g_7_4 0
g_7_5 1
g_7_6 0
g_7_7 0
g_7_8 0
g_7_9 0
g_7_10 0
g_7_11 0
g_7_12 0
g_7_13 0
g_7_14 0
g_8_0 0
g_8_1 0
g_8_2 1
g_8_3 1
g_8_4 0
g_8_5 0
g_8_6 1
g_8_7 0
g_8_8 0
g_8_9 0
g_8_10 0
g_8_11 0
g_8_12 0
g_8_13 0
g_8_14 0
g_9_0 0
g_9_1 0
g_9_2 0
g_9_3 1
g_9_4 0
g_9_5 0
g_9_6 0
g_9_7 1
g_9_8 0
g_9_9 0
g_9_10 0
g_9_11 0
g_9_12 0
g_9_13 0
g_9_14 0
g_10_0 0
g_10_1 0
g_10_2 0
g_10_3 0
g_10_4 0
g_10_5 0
g_10_6 0
g_10_7 1
g_10_8 0
g_10_9 0
g_10_10 0
g_10_11 0
g_10_12 0
g_10_13 0
g_10_14 0
g_11_0 0
g_11_1 0
g_11_2 0
g_11_3 0
g_11_4 1
g_11_5 0
g_11_6 0
g_11_7 1
g_11_8 1
g_11_9 0
g_11_10 0
g_11_11 0
g_11_12 0
g_11_13 0
g_11_14 0
g_12_0 0
g_12_1 1
g_12_2 0
g_12_3 0
g_12_4 0
g_12_5 0
g_12_6 0
g_12_7 0
g_12_8 0
g_12_9 1
g_12_10 0
g_12_11 0
g_12_12 0
g_12_13 0
g_12_14 0
g_13_0 0
g_13_1 1
g_13_2 0
g_13_3 1
g_13_4 0
g_13_5 0
g_13_6 0
g_13_7 0
g_13_8 0
g_13_9 0
g_13_10 0
g_13_11 0
g_13_12 1
g_13_13 0
g_13_14 0
g_14_0 0
g_14_1 0
g_14_2 0
g_14_3 0
g_14_4 0
g_14_5 1
g_14_6 0
g_14_7 0
g_14_8 0
g_14_9 0
g_14_10 0
g_14_11 0
g_14_12 0
g_14_13 0
g_14_14 0
T_0 -1.0772151339733682e-01
T_1 2.5292905042191194e-01
T_2 4.3748091375569231e-01
T_3 3.6647151242225107e-01
T_4 -4.8527242291854122e-02
T_5 3.5786225524593362e-01
T_6 -7.3127468514982752e-02
T_7 6.1200031965455537e-02
T_8 4.3817382176133890e-01
T_9 3.1126683891216089e-03
T_10 4.3798341580846056e-01
T_11 4.3653275544883741e-01
T_12 -4.0850122341865358e-02
T_13 3.8731533047770483e-01
T_14 -9.5069882386127347e-02
